(set-info :smt-lib-version 2.6)
(set-logic QF_LRA)
(set-info :source |
TLP-GP automated DTP to SMT-LIB encoding for planning
by F.Maris and P.Regnier, IRIT - Universite Paul Sabatier, Toulouse

|)
(set-info :category "industrial")
(set-info :status sat)
(declare-fun St_spy_variable () Real)
(declare-fun t_Init_0 () Real)
(declare-fun t_Goal_4 () Real)
(declare-fun t_C_rb_ga1_gc1_3 () Real)
(declare-fun t_A_ra_ga2_gb1_1 () Real)
(declare-fun t_B_ra_rb_gb2_2 () Real)
(declare-fun t_C_rb_ga1_gc2_3 () Real)
(declare-fun t_A_ra_ga3_gb1_1 () Real)
(declare-fun t_B_ra_rb_gb3_2 () Real)
(declare-fun t_C_rb_ga1_gc3_3 () Real)
(declare-fun t_A_ra_ga4_gb1_1 () Real)
(declare-fun t_B_ra_rb_gb4_2 () Real)
(declare-fun t_C_rb_ga1_gc4_3 () Real)
(declare-fun t_A_ra_ga5_gb1_1 () Real)
(declare-fun t_B_ra_rb_gb5_2 () Real)
(declare-fun t_C_rb_ga1_gc5_3 () Real)
(declare-fun t_A_ra_ga6_gb1_1 () Real)
(declare-fun t_B_ra_rb_gb6_2 () Real)
(declare-fun t_C_rb_ga1_gc6_3 () Real)
(declare-fun t_A_ra_ga7_gb1_1 () Real)
(declare-fun t_B_ra_rb_gb7_2 () Real)
(declare-fun t_C_rb_ga1_gc7_3 () Real)
(declare-fun t_A_ra_ga8_gb1_1 () Real)
(declare-fun t_B_ra_rb_gb8_2 () Real)
(declare-fun t_C_rb_ga1_gc8_3 () Real)
(declare-fun t_A_ra_ga9_gb1_1 () Real)
(declare-fun t_B_ra_rb_gb9_2 () Real)
(declare-fun t_A_ra_ga1_gb1_1 () Real)
(declare-fun t_B_ra_rb_gb1_2 () Real)
(declare-fun t_C_rb_ga1_gc9_3 () Real)
(assert (let ((?v_12 (- t_Goal_4 t_C_rb_ga1_gc1_3)) (?v_13 (- t_Goal_4 t_A_ra_ga2_gb1_1)) (?v_24 (- t_Goal_4 t_B_ra_rb_gb2_2)) (?v_26 (- t_Goal_4 t_C_rb_ga1_gc2_3)) (?v_27 (- t_Goal_4 t_A_ra_ga3_gb1_1)) (?v_29 (- t_Goal_4 t_B_ra_rb_gb3_2)) (?v_31 (- t_Goal_4 t_C_rb_ga1_gc3_3)) (?v_32 (- t_Goal_4 t_A_ra_ga4_gb1_1)) (?v_34 (- t_Goal_4 t_B_ra_rb_gb4_2)) (?v_36 (- t_Goal_4 t_C_rb_ga1_gc4_3)) (?v_37 (- t_Goal_4 t_A_ra_ga5_gb1_1)) (?v_39 (- t_Goal_4 t_B_ra_rb_gb5_2)) (?v_41 (- t_Goal_4 t_C_rb_ga1_gc5_3)) (?v_42 (- t_Goal_4 t_A_ra_ga6_gb1_1)) (?v_44 (- t_Goal_4 t_B_ra_rb_gb6_2)) (?v_46 (- t_Goal_4 t_C_rb_ga1_gc6_3)) (?v_47 (- t_Goal_4 t_A_ra_ga7_gb1_1)) (?v_49 (- t_Goal_4 t_B_ra_rb_gb7_2)) (?v_51 (- t_Goal_4 t_C_rb_ga1_gc7_3)) (?v_52 (- t_Goal_4 t_A_ra_ga8_gb1_1)) (?v_54 (- t_Goal_4 t_B_ra_rb_gb8_2)) (?v_56 (- t_Goal_4 t_C_rb_ga1_gc8_3)) (?v_57 (- t_Goal_4 t_A_ra_ga9_gb1_1)) (?v_59 (- t_Goal_4 t_B_ra_rb_gb9_2)) (?v_0 (- t_Goal_4 t_A_ra_ga1_gb1_1)) (?v_1 (- t_Goal_4 t_B_ra_rb_gb1_2)) (?v_62 (- t_Goal_4 t_C_rb_ga1_gc9_3)) (?v_60 (- t_B_ra_rb_gb1_2 t_A_ra_ga1_gb1_1))) (let ((?v_14 (< ?v_60 5)) (?v_58 (- t_B_ra_rb_gb9_2 t_A_ra_ga1_gb1_1))) (let ((?v_15 (< ?v_58 5)) (?v_53 (- t_B_ra_rb_gb8_2 t_A_ra_ga1_gb1_1))) (let ((?v_16 (< ?v_53 5)) (?v_48 (- t_B_ra_rb_gb7_2 t_A_ra_ga1_gb1_1))) (let ((?v_17 (< ?v_48 5)) (?v_43 (- t_B_ra_rb_gb6_2 t_A_ra_ga1_gb1_1))) (let ((?v_18 (< ?v_43 5)) (?v_38 (- t_B_ra_rb_gb5_2 t_A_ra_ga1_gb1_1))) (let ((?v_19 (< ?v_38 5)) (?v_33 (- t_B_ra_rb_gb4_2 t_A_ra_ga1_gb1_1))) (let ((?v_20 (< ?v_33 5)) (?v_28 (- t_B_ra_rb_gb3_2 t_A_ra_ga1_gb1_1))) (let ((?v_21 (< ?v_28 5)) (?v_23 (- t_B_ra_rb_gb2_2 t_A_ra_ga1_gb1_1))) (let ((?v_22 (< ?v_23 5)) (?v_61 (- t_C_rb_ga1_gc9_3 t_B_ra_rb_gb1_2))) (let ((?v_2 (< ?v_61 4)) (?v_55 (- t_C_rb_ga1_gc8_3 t_B_ra_rb_gb1_2))) (let ((?v_3 (< ?v_55 4)) (?v_50 (- t_C_rb_ga1_gc7_3 t_B_ra_rb_gb1_2))) (let ((?v_4 (< ?v_50 4)) (?v_45 (- t_C_rb_ga1_gc6_3 t_B_ra_rb_gb1_2))) (let ((?v_5 (< ?v_45 4)) (?v_40 (- t_C_rb_ga1_gc5_3 t_B_ra_rb_gb1_2))) (let ((?v_6 (< ?v_40 4)) (?v_35 (- t_C_rb_ga1_gc4_3 t_B_ra_rb_gb1_2))) (let ((?v_7 (< ?v_35 4)) (?v_30 (- t_C_rb_ga1_gc3_3 t_B_ra_rb_gb1_2))) (let ((?v_8 (< ?v_30 4)) (?v_25 (- t_C_rb_ga1_gc2_3 t_B_ra_rb_gb1_2))) (let ((?v_9 (< ?v_25 4)) (?v_11 (- t_C_rb_ga1_gc1_3 t_B_ra_rb_gb1_2))) (let ((?v_10 (< ?v_11 4)) (?v_63 (- t_A_ra_ga9_gb1_1 t_A_ra_ga1_gb1_1))) (let ((?v_335 (< ?v_63 5)) (?v_334 (> ?v_63 5))) (let ((?v_150 (or ?v_335 ?v_334)) (?v_64 (- t_A_ra_ga8_gb1_1 t_A_ra_ga1_gb1_1))) (let ((?v_326 (< ?v_64 5)) (?v_325 (> ?v_64 5))) (let ((?v_151 (or ?v_326 ?v_325)) (?v_65 (- t_A_ra_ga7_gb1_1 t_A_ra_ga1_gb1_1))) (let ((?v_313 (< ?v_65 5)) (?v_312 (> ?v_65 5))) (let ((?v_152 (or ?v_313 ?v_312)) (?v_66 (- t_A_ra_ga6_gb1_1 t_A_ra_ga1_gb1_1))) (let ((?v_296 (< ?v_66 5)) (?v_295 (> ?v_66 5))) (let ((?v_153 (or ?v_296 ?v_295)) (?v_67 (- t_A_ra_ga5_gb1_1 t_A_ra_ga1_gb1_1))) (let ((?v_275 (< ?v_67 5)) (?v_274 (> ?v_67 5))) (let ((?v_154 (or ?v_275 ?v_274)) (?v_68 (- t_A_ra_ga4_gb1_1 t_A_ra_ga1_gb1_1))) (let ((?v_250 (< ?v_68 5)) (?v_249 (> ?v_68 5))) (let ((?v_155 (or ?v_250 ?v_249)) (?v_69 (- t_A_ra_ga3_gb1_1 t_A_ra_ga1_gb1_1))) (let ((?v_214 (< ?v_69 5)) (?v_213 (> ?v_69 5))) (let ((?v_156 (or ?v_214 ?v_213)) (?v_70 (- t_A_ra_ga2_gb1_1 t_A_ra_ga1_gb1_1))) (let ((?v_142 (< ?v_70 5)) (?v_141 (> ?v_70 5)) (?v_105 (< ?v_60 1)) (?v_71 (> ?v_60 1))) (let ((?v_157 (or ?v_105 ?v_71)) (?v_96 (< ?v_0 6)) (?v_72 (- t_A_ra_ga1_gb1_1 t_A_ra_ga9_gb1_1))) (let ((?v_174 (> ?v_72 5)) (?v_73 (- t_A_ra_ga1_gb1_1 t_A_ra_ga8_gb1_1))) (let ((?v_175 (> ?v_73 5)) (?v_74 (- t_A_ra_ga1_gb1_1 t_A_ra_ga7_gb1_1))) (let ((?v_176 (> ?v_74 5)) (?v_75 (- t_A_ra_ga1_gb1_1 t_A_ra_ga6_gb1_1))) (let ((?v_177 (> ?v_75 5)) (?v_76 (- t_A_ra_ga1_gb1_1 t_A_ra_ga5_gb1_1))) (let ((?v_178 (> ?v_76 5)) (?v_77 (- t_A_ra_ga1_gb1_1 t_A_ra_ga4_gb1_1))) (let ((?v_179 (> ?v_77 5)) (?v_78 (- t_A_ra_ga1_gb1_1 t_A_ra_ga3_gb1_1))) (let ((?v_180 (> ?v_78 5)) (?v_79 (- t_A_ra_ga1_gb1_1 t_A_ra_ga2_gb1_1))) (let ((?v_132 (> ?v_79 5)) (?v_159 (- t_C_rb_ga1_gc9_3 t_A_ra_ga1_gb1_1))) (let ((?v_158 (< ?v_159 4)) (?v_161 (- t_C_rb_ga1_gc8_3 t_A_ra_ga1_gb1_1))) (let ((?v_160 (< ?v_161 4)) (?v_163 (- t_C_rb_ga1_gc7_3 t_A_ra_ga1_gb1_1))) (let ((?v_162 (< ?v_163 4)) (?v_165 (- t_C_rb_ga1_gc6_3 t_A_ra_ga1_gb1_1))) (let ((?v_164 (< ?v_165 4)) (?v_167 (- t_C_rb_ga1_gc5_3 t_A_ra_ga1_gb1_1))) (let ((?v_166 (< ?v_167 4)) (?v_169 (- t_C_rb_ga1_gc4_3 t_A_ra_ga1_gb1_1))) (let ((?v_168 (< ?v_169 4)) (?v_171 (- t_C_rb_ga1_gc3_3 t_A_ra_ga1_gb1_1))) (let ((?v_170 (< ?v_171 4)) (?v_173 (- t_C_rb_ga1_gc2_3 t_A_ra_ga1_gb1_1))) (let ((?v_172 (< ?v_173 4)) (?v_130 (- t_C_rb_ga1_gc1_3 t_A_ra_ga1_gb1_1))) (let ((?v_131 (< ?v_130 4)) (?v_80 (- t_B_ra_rb_gb9_2 t_B_ra_rb_gb1_2))) (let ((?v_337 (< ?v_80 4)) (?v_336 (> ?v_80 4))) (let ((?v_97 (or ?v_337 ?v_336)) (?v_81 (- t_B_ra_rb_gb8_2 t_B_ra_rb_gb1_2))) (let ((?v_330 (< ?v_81 4)) (?v_329 (> ?v_81 4))) (let ((?v_98 (or ?v_330 ?v_329)) (?v_82 (- t_B_ra_rb_gb7_2 t_B_ra_rb_gb1_2))) (let ((?v_319 (< ?v_82 4)) (?v_318 (> ?v_82 4))) (let ((?v_99 (or ?v_319 ?v_318)) (?v_83 (- t_B_ra_rb_gb6_2 t_B_ra_rb_gb1_2))) (let ((?v_304 (< ?v_83 4)) (?v_303 (> ?v_83 4))) (let ((?v_100 (or ?v_304 ?v_303)) (?v_84 (- t_B_ra_rb_gb5_2 t_B_ra_rb_gb1_2))) (let ((?v_285 (< ?v_84 4)) (?v_284 (> ?v_84 4))) (let ((?v_101 (or ?v_285 ?v_284)) (?v_85 (- t_B_ra_rb_gb4_2 t_B_ra_rb_gb1_2))) (let ((?v_262 (< ?v_85 4)) (?v_261 (> ?v_85 4))) (let ((?v_102 (or ?v_262 ?v_261)) (?v_86 (- t_B_ra_rb_gb3_2 t_B_ra_rb_gb1_2))) (let ((?v_235 (< ?v_86 4)) (?v_234 (> ?v_86 4))) (let ((?v_103 (or ?v_235 ?v_234)) (?v_87 (- t_B_ra_rb_gb2_2 t_B_ra_rb_gb1_2))) (let ((?v_189 (< ?v_87 4)) (?v_188 (> ?v_87 4))) (let ((?v_104 (or ?v_189 ?v_188)) (?v_88 (- t_B_ra_rb_gb1_2 t_B_ra_rb_gb9_2))) (let ((?v_122 (> ?v_88 4)) (?v_89 (- t_B_ra_rb_gb1_2 t_B_ra_rb_gb8_2))) (let ((?v_123 (> ?v_89 4)) (?v_90 (- t_B_ra_rb_gb1_2 t_B_ra_rb_gb7_2))) (let ((?v_124 (> ?v_90 4)) (?v_91 (- t_B_ra_rb_gb1_2 t_B_ra_rb_gb6_2))) (let ((?v_125 (> ?v_91 4)) (?v_92 (- t_B_ra_rb_gb1_2 t_B_ra_rb_gb5_2))) (let ((?v_126 (> ?v_92 4)) (?v_93 (- t_B_ra_rb_gb1_2 t_B_ra_rb_gb4_2))) (let ((?v_127 (> ?v_93 4)) (?v_94 (- t_B_ra_rb_gb1_2 t_B_ra_rb_gb3_2))) (let ((?v_128 (> ?v_94 4)) (?v_95 (- t_B_ra_rb_gb1_2 t_B_ra_rb_gb2_2))) (let ((?v_129 (> ?v_95 4)) (?v_107 (- t_B_ra_rb_gb1_2 t_A_ra_ga9_gb1_1))) (let ((?v_106 (> ?v_107 1)) (?v_109 (- t_B_ra_rb_gb1_2 t_A_ra_ga8_gb1_1))) (let ((?v_108 (> ?v_109 1)) (?v_111 (- t_B_ra_rb_gb1_2 t_A_ra_ga7_gb1_1))) (let ((?v_110 (> ?v_111 1)) (?v_113 (- t_B_ra_rb_gb1_2 t_A_ra_ga6_gb1_1))) (let ((?v_112 (> ?v_113 1)) (?v_115 (- t_B_ra_rb_gb1_2 t_A_ra_ga5_gb1_1))) (let ((?v_114 (> ?v_115 1)) (?v_117 (- t_B_ra_rb_gb1_2 t_A_ra_ga4_gb1_1))) (let ((?v_116 (> ?v_117 1)) (?v_119 (- t_B_ra_rb_gb1_2 t_A_ra_ga3_gb1_1))) (let ((?v_118 (> ?v_119 1)) (?v_121 (- t_B_ra_rb_gb1_2 t_A_ra_ga2_gb1_1))) (let ((?v_120 (> ?v_121 1)) (?v_197 (or ?v_71 ?v_105)) (?v_333 (< ?v_107 1))) (let ((?v_198 (or ?v_106 ?v_333)) (?v_324 (< ?v_109 1))) (let ((?v_199 (or ?v_108 ?v_324)) (?v_311 (< ?v_111 1))) (let ((?v_200 (or ?v_110 ?v_311)) (?v_294 (< ?v_113 1))) (let ((?v_201 (or ?v_112 ?v_294)) (?v_273 (< ?v_115 1))) (let ((?v_202 (or ?v_114 ?v_273)) (?v_248 (< ?v_117 1))) (let ((?v_203 (or ?v_116 ?v_248)) (?v_212 (< ?v_119 1))) (let ((?v_204 (or ?v_118 ?v_212)) (?v_140 (< ?v_121 1)) (?v_133 (- t_A_ra_ga9_gb1_1 t_A_ra_ga2_gb1_1)) (?v_134 (- t_A_ra_ga8_gb1_1 t_A_ra_ga2_gb1_1)) (?v_135 (- t_A_ra_ga7_gb1_1 t_A_ra_ga2_gb1_1)) (?v_136 (- t_A_ra_ga6_gb1_1 t_A_ra_ga2_gb1_1)) (?v_137 (- t_A_ra_ga5_gb1_1 t_A_ra_ga2_gb1_1)) (?v_138 (- t_A_ra_ga4_gb1_1 t_A_ra_ga2_gb1_1)) (?v_139 (- t_A_ra_ga3_gb1_1 t_A_ra_ga2_gb1_1)) (?v_143 (- t_A_ra_ga2_gb1_1 t_A_ra_ga9_gb1_1)) (?v_144 (- t_A_ra_ga2_gb1_1 t_A_ra_ga8_gb1_1)) (?v_145 (- t_A_ra_ga2_gb1_1 t_A_ra_ga7_gb1_1)) (?v_146 (- t_A_ra_ga2_gb1_1 t_A_ra_ga6_gb1_1)) (?v_147 (- t_A_ra_ga2_gb1_1 t_A_ra_ga5_gb1_1)) (?v_148 (- t_A_ra_ga2_gb1_1 t_A_ra_ga4_gb1_1)) (?v_149 (- t_A_ra_ga2_gb1_1 t_A_ra_ga3_gb1_1)) (?v_221 (or ?v_158 (> ?v_159 4))) (?v_332 (> ?v_161 4))) (let ((?v_222 (or ?v_160 ?v_332)) (?v_322 (> ?v_163 4))) (let ((?v_223 (or ?v_162 ?v_322)) (?v_308 (> ?v_165 4))) (let ((?v_224 (or ?v_164 ?v_308)) (?v_290 (> ?v_167 4))) (let ((?v_225 (or ?v_166 ?v_290)) (?v_268 (> ?v_169 4))) (let ((?v_226 (or ?v_168 ?v_268)) (?v_242 (> ?v_171 4))) (let ((?v_227 (or ?v_170 ?v_242)) (?v_205 (> ?v_173 4)) (?v_181 (- t_B_ra_rb_gb9_2 t_B_ra_rb_gb2_2)) (?v_182 (- t_B_ra_rb_gb8_2 t_B_ra_rb_gb2_2)) (?v_183 (- t_B_ra_rb_gb7_2 t_B_ra_rb_gb2_2)) (?v_184 (- t_B_ra_rb_gb6_2 t_B_ra_rb_gb2_2)) (?v_185 (- t_B_ra_rb_gb5_2 t_B_ra_rb_gb2_2)) (?v_186 (- t_B_ra_rb_gb4_2 t_B_ra_rb_gb2_2)) (?v_187 (- t_B_ra_rb_gb3_2 t_B_ra_rb_gb2_2)) (?v_190 (- t_B_ra_rb_gb2_2 t_B_ra_rb_gb9_2)) (?v_191 (- t_B_ra_rb_gb2_2 t_B_ra_rb_gb8_2)) (?v_192 (- t_B_ra_rb_gb2_2 t_B_ra_rb_gb7_2)) (?v_193 (- t_B_ra_rb_gb2_2 t_B_ra_rb_gb6_2)) (?v_194 (- t_B_ra_rb_gb2_2 t_B_ra_rb_gb5_2)) (?v_195 (- t_B_ra_rb_gb2_2 t_B_ra_rb_gb4_2)) (?v_196 (- t_B_ra_rb_gb2_2 t_B_ra_rb_gb3_2)) (?v_206 (- t_A_ra_ga9_gb1_1 t_A_ra_ga3_gb1_1)) (?v_207 (- t_A_ra_ga8_gb1_1 t_A_ra_ga3_gb1_1)) (?v_208 (- t_A_ra_ga7_gb1_1 t_A_ra_ga3_gb1_1)) (?v_209 (- t_A_ra_ga6_gb1_1 t_A_ra_ga3_gb1_1)) (?v_210 (- t_A_ra_ga5_gb1_1 t_A_ra_ga3_gb1_1)) (?v_211 (- t_A_ra_ga4_gb1_1 t_A_ra_ga3_gb1_1)) (?v_215 (- t_A_ra_ga3_gb1_1 t_A_ra_ga9_gb1_1)) (?v_216 (- t_A_ra_ga3_gb1_1 t_A_ra_ga8_gb1_1)) (?v_217 (- t_A_ra_ga3_gb1_1 t_A_ra_ga7_gb1_1)) (?v_218 (- t_A_ra_ga3_gb1_1 t_A_ra_ga6_gb1_1)) (?v_219 (- t_A_ra_ga3_gb1_1 t_A_ra_ga5_gb1_1)) (?v_220 (- t_A_ra_ga3_gb1_1 t_A_ra_ga4_gb1_1)) (?v_228 (- t_B_ra_rb_gb9_2 t_B_ra_rb_gb3_2)) (?v_229 (- t_B_ra_rb_gb8_2 t_B_ra_rb_gb3_2)) (?v_230 (- t_B_ra_rb_gb7_2 t_B_ra_rb_gb3_2)) (?v_231 (- t_B_ra_rb_gb6_2 t_B_ra_rb_gb3_2)) (?v_232 (- t_B_ra_rb_gb5_2 t_B_ra_rb_gb3_2)) (?v_233 (- t_B_ra_rb_gb4_2 t_B_ra_rb_gb3_2)) (?v_236 (- t_B_ra_rb_gb3_2 t_B_ra_rb_gb9_2)) (?v_237 (- t_B_ra_rb_gb3_2 t_B_ra_rb_gb8_2)) (?v_238 (- t_B_ra_rb_gb3_2 t_B_ra_rb_gb7_2)) (?v_239 (- t_B_ra_rb_gb3_2 t_B_ra_rb_gb6_2)) (?v_240 (- t_B_ra_rb_gb3_2 t_B_ra_rb_gb5_2)) (?v_241 (- t_B_ra_rb_gb3_2 t_B_ra_rb_gb4_2)) (?v_243 (- t_A_ra_ga9_gb1_1 t_A_ra_ga4_gb1_1)) (?v_244 (- t_A_ra_ga8_gb1_1 t_A_ra_ga4_gb1_1)) (?v_245 (- t_A_ra_ga7_gb1_1 t_A_ra_ga4_gb1_1)) (?v_246 (- t_A_ra_ga6_gb1_1 t_A_ra_ga4_gb1_1)) (?v_247 (- t_A_ra_ga5_gb1_1 t_A_ra_ga4_gb1_1)) (?v_251 (- t_A_ra_ga4_gb1_1 t_A_ra_ga9_gb1_1)) (?v_252 (- t_A_ra_ga4_gb1_1 t_A_ra_ga8_gb1_1)) (?v_253 (- t_A_ra_ga4_gb1_1 t_A_ra_ga7_gb1_1)) (?v_254 (- t_A_ra_ga4_gb1_1 t_A_ra_ga6_gb1_1)) (?v_255 (- t_A_ra_ga4_gb1_1 t_A_ra_ga5_gb1_1)) (?v_256 (- t_B_ra_rb_gb9_2 t_B_ra_rb_gb4_2)) (?v_257 (- t_B_ra_rb_gb8_2 t_B_ra_rb_gb4_2)) (?v_258 (- t_B_ra_rb_gb7_2 t_B_ra_rb_gb4_2)) (?v_259 (- t_B_ra_rb_gb6_2 t_B_ra_rb_gb4_2)) (?v_260 (- t_B_ra_rb_gb5_2 t_B_ra_rb_gb4_2)) (?v_263 (- t_B_ra_rb_gb4_2 t_B_ra_rb_gb9_2)) (?v_264 (- t_B_ra_rb_gb4_2 t_B_ra_rb_gb8_2)) (?v_265 (- t_B_ra_rb_gb4_2 t_B_ra_rb_gb7_2)) (?v_266 (- t_B_ra_rb_gb4_2 t_B_ra_rb_gb6_2)) (?v_267 (- t_B_ra_rb_gb4_2 t_B_ra_rb_gb5_2)) (?v_269 (- t_A_ra_ga9_gb1_1 t_A_ra_ga5_gb1_1)) (?v_270 (- t_A_ra_ga8_gb1_1 t_A_ra_ga5_gb1_1)) (?v_271 (- t_A_ra_ga7_gb1_1 t_A_ra_ga5_gb1_1)) (?v_272 (- t_A_ra_ga6_gb1_1 t_A_ra_ga5_gb1_1)) (?v_276 (- t_A_ra_ga5_gb1_1 t_A_ra_ga9_gb1_1)) (?v_277 (- t_A_ra_ga5_gb1_1 t_A_ra_ga8_gb1_1)) (?v_278 (- t_A_ra_ga5_gb1_1 t_A_ra_ga7_gb1_1)) (?v_279 (- t_A_ra_ga5_gb1_1 t_A_ra_ga6_gb1_1)) (?v_280 (- t_B_ra_rb_gb9_2 t_B_ra_rb_gb5_2)) (?v_281 (- t_B_ra_rb_gb8_2 t_B_ra_rb_gb5_2)) (?v_282 (- t_B_ra_rb_gb7_2 t_B_ra_rb_gb5_2)) (?v_283 (- t_B_ra_rb_gb6_2 t_B_ra_rb_gb5_2)) (?v_286 (- t_B_ra_rb_gb5_2 t_B_ra_rb_gb9_2)) (?v_287 (- t_B_ra_rb_gb5_2 t_B_ra_rb_gb8_2)) (?v_288 (- t_B_ra_rb_gb5_2 t_B_ra_rb_gb7_2)) (?v_289 (- t_B_ra_rb_gb5_2 t_B_ra_rb_gb6_2)) (?v_291 (- t_A_ra_ga9_gb1_1 t_A_ra_ga6_gb1_1)) (?v_292 (- t_A_ra_ga8_gb1_1 t_A_ra_ga6_gb1_1)) (?v_293 (- t_A_ra_ga7_gb1_1 t_A_ra_ga6_gb1_1)) (?v_297 (- t_A_ra_ga6_gb1_1 t_A_ra_ga9_gb1_1)) (?v_298 (- t_A_ra_ga6_gb1_1 t_A_ra_ga8_gb1_1)) (?v_299 (- t_A_ra_ga6_gb1_1 t_A_ra_ga7_gb1_1)) (?v_300 (- t_B_ra_rb_gb9_2 t_B_ra_rb_gb6_2)) (?v_301 (- t_B_ra_rb_gb8_2 t_B_ra_rb_gb6_2)) (?v_302 (- t_B_ra_rb_gb7_2 t_B_ra_rb_gb6_2)) (?v_305 (- t_B_ra_rb_gb6_2 t_B_ra_rb_gb9_2)) (?v_306 (- t_B_ra_rb_gb6_2 t_B_ra_rb_gb8_2)) (?v_307 (- t_B_ra_rb_gb6_2 t_B_ra_rb_gb7_2)) (?v_309 (- t_A_ra_ga9_gb1_1 t_A_ra_ga7_gb1_1)) (?v_310 (- t_A_ra_ga8_gb1_1 t_A_ra_ga7_gb1_1)) (?v_314 (- t_A_ra_ga7_gb1_1 t_A_ra_ga9_gb1_1)) (?v_315 (- t_A_ra_ga7_gb1_1 t_A_ra_ga8_gb1_1)) (?v_316 (- t_B_ra_rb_gb9_2 t_B_ra_rb_gb7_2)) (?v_317 (- t_B_ra_rb_gb8_2 t_B_ra_rb_gb7_2)) (?v_320 (- t_B_ra_rb_gb7_2 t_B_ra_rb_gb9_2)) (?v_321 (- t_B_ra_rb_gb7_2 t_B_ra_rb_gb8_2)) (?v_323 (- t_A_ra_ga9_gb1_1 t_A_ra_ga8_gb1_1)) (?v_327 (- t_A_ra_ga8_gb1_1 t_A_ra_ga9_gb1_1)) (?v_328 (- t_B_ra_rb_gb9_2 t_B_ra_rb_gb8_2)) (?v_331 (- t_B_ra_rb_gb8_2 t_B_ra_rb_gb9_2))) (and (= St_spy_variable (+ 1 t_Init_0)) (>= t_Goal_4 t_Init_0) (>= (- t_C_rb_ga1_gc1_3 t_Init_0) 0) (>= ?v_12 1) (>= (- t_A_ra_ga2_gb1_1 t_Init_0) 0) (>= ?v_13 5) (>= (- t_B_ra_rb_gb2_2 t_Init_0) 0) (>= ?v_24 4) (>= (- t_C_rb_ga1_gc2_3 t_Init_0) 0) (>= ?v_26 1) (>= (- t_A_ra_ga3_gb1_1 t_Init_0) 0) (>= ?v_27 5) (>= (- t_B_ra_rb_gb3_2 t_Init_0) 0) (>= ?v_29 4) (>= (- t_C_rb_ga1_gc3_3 t_Init_0) 0) (>= ?v_31 1) (>= (- t_A_ra_ga4_gb1_1 t_Init_0) 0) (>= ?v_32 5) (>= (- t_B_ra_rb_gb4_2 t_Init_0) 0) (>= ?v_34 4) (>= (- t_C_rb_ga1_gc4_3 t_Init_0) 0) (>= ?v_36 1) (>= (- t_A_ra_ga5_gb1_1 t_Init_0) 0) (>= ?v_37 5) (>= (- t_B_ra_rb_gb5_2 t_Init_0) 0) (>= ?v_39 4) (>= (- t_C_rb_ga1_gc5_3 t_Init_0) 0) (>= ?v_41 1) (>= (- t_A_ra_ga6_gb1_1 t_Init_0) 0) (>= ?v_42 5) (>= (- t_B_ra_rb_gb6_2 t_Init_0) 0) (>= ?v_44 4) (>= (- t_C_rb_ga1_gc6_3 t_Init_0) 0) (>= ?v_46 1) (>= (- t_A_ra_ga7_gb1_1 t_Init_0) 0) (>= ?v_47 5) (>= (- t_B_ra_rb_gb7_2 t_Init_0) 0) (>= ?v_49 4) (>= (- t_C_rb_ga1_gc7_3 t_Init_0) 0) (>= ?v_51 1) (>= (- t_A_ra_ga8_gb1_1 t_Init_0) 0) (>= ?v_52 5) (>= (- t_B_ra_rb_gb8_2 t_Init_0) 0) (>= ?v_54 4) (>= (- t_C_rb_ga1_gc8_3 t_Init_0) 0) (>= ?v_56 1) (>= (- t_A_ra_ga9_gb1_1 t_Init_0) 0) (>= ?v_57 5) (>= (- t_B_ra_rb_gb9_2 t_Init_0) 0) (>= ?v_59 4) (>= (- t_A_ra_ga1_gb1_1 t_Init_0) 0) (>= ?v_0 5) (>= (- t_B_ra_rb_gb1_2 t_Init_0) 0) (>= ?v_1 4) (>= (- t_C_rb_ga1_gc9_3 t_Init_0) 0) (>= ?v_62 1) ?v_14 ?v_15 ?v_16 ?v_17 ?v_18 ?v_19 ?v_20 ?v_21 ?v_22 (>= ?v_0 6) ?v_2 ?v_3 ?v_4 ?v_5 ?v_6 ?v_7 ?v_8 ?v_9 ?v_10 (>= ?v_1 5) ?v_2 ?v_3 ?v_4 ?v_5 ?v_6 ?v_7 ?v_8 ?v_9 ?v_10 ?v_10 (>= ?v_11 0) (>= ?v_12 2) (>= ?v_13 6) ?v_14 ?v_15 ?v_16 ?v_17 ?v_18 ?v_19 ?v_20 ?v_21 ?v_22 ?v_22 (>= ?v_23 0) (>= ?v_24 5) ?v_2 ?v_3 ?v_4 ?v_5 ?v_6 ?v_7 ?v_8 ?v_9 ?v_9 (>= ?v_25 0) (>= ?v_26 2) (>= ?v_27 6) ?v_14 ?v_15 ?v_16 ?v_17 ?v_18 ?v_19 ?v_20 ?v_21 ?v_21 (>= ?v_28 0) (>= ?v_29 5) ?v_2 ?v_3 ?v_4 ?v_5 ?v_6 ?v_7 ?v_8 ?v_8 (>= ?v_30 0) (>= ?v_31 2) (>= ?v_32 6) ?v_14 ?v_15 ?v_16 ?v_17 ?v_18 ?v_19 ?v_20 ?v_20 (>= ?v_33 0) (>= ?v_34 5) ?v_2 ?v_3 ?v_4 ?v_5 ?v_6 ?v_7 ?v_7 (>= ?v_35 0) (>= ?v_36 2) (>= ?v_37 6) ?v_14 ?v_15 ?v_16 ?v_17 ?v_18 ?v_19 ?v_19 (>= ?v_38 0) (>= ?v_39 5) ?v_2 ?v_3 ?v_4 ?v_5 ?v_6 ?v_6 (>= ?v_40 0) (>= ?v_41 2) (>= ?v_42 6) ?v_14 ?v_15 ?v_16 ?v_17 ?v_18 ?v_18 (>= ?v_43 0) (>= ?v_44 5) ?v_2 ?v_3 ?v_4 ?v_5 ?v_5 (>= ?v_45 0) (>= ?v_46 2) (>= ?v_47 6) ?v_14 ?v_15 ?v_16 ?v_17 ?v_17 (>= ?v_48 0) (>= ?v_49 5) ?v_2 ?v_3 ?v_4 ?v_4 (>= ?v_50 0) (>= ?v_51 2) (>= ?v_52 6) ?v_14 ?v_15 ?v_16 ?v_16 (>= ?v_53 0) (>= ?v_54 5) ?v_2 ?v_3 ?v_3 (>= ?v_55 0) (>= ?v_56 2) (>= ?v_57 6) ?v_14 ?v_15 ?v_15 (>= ?v_58 0) (>= ?v_59 5) ?v_14 (>= ?v_60 0) ?v_2 (>= ?v_61 0) (>= ?v_62 2) ?v_150 ?v_151 ?v_152 ?v_153 ?v_154 ?v_155 ?v_156 (or ?v_142 ?v_141) ?v_157 (or ?v_96 ?v_71) (or ?v_174 (< ?v_72 5)) (or ?v_175 (< ?v_73 5)) (or ?v_176 (< ?v_74 5)) (or ?v_177 (< ?v_75 5)) (or ?v_178 (< ?v_76 5)) (or ?v_179 (< ?v_77 5)) (or ?v_180 (< ?v_78 5)) (or ?v_132 (< ?v_79 5)) (or ?v_158 (< ?v_62 2)) (or ?v_160 (< ?v_56 2)) (or ?v_162 (< ?v_51 2)) (or ?v_164 (< ?v_46 2)) (or ?v_166 (< ?v_41 2)) (or ?v_168 (< ?v_36 2)) (or ?v_170 (< ?v_31 2)) (or ?v_172 (< ?v_26 2)) (or ?v_131 (< ?v_12 2)) ?v_97 ?v_98 ?v_99 ?v_100 ?v_101 ?v_102 ?v_103 ?v_104 (or ?v_122 (< ?v_88 4)) (or ?v_123 (< ?v_89 4)) (or ?v_124 (< ?v_90 4)) (or ?v_125 (< ?v_91 4)) (or ?v_126 (< ?v_92 4)) (or ?v_127 (< ?v_93 4)) (or ?v_128 (< ?v_94 4)) (or ?v_129 (< ?v_95 4)) (or ?v_71 ?v_96) (or ?v_106 (< ?v_57 6)) (or ?v_108 (< ?v_52 6)) (or ?v_110 (< ?v_47 6)) (or ?v_112 (< ?v_42 6)) (or ?v_114 (< ?v_37 6)) (or ?v_116 (< ?v_32 6)) (or ?v_118 (< ?v_27 6)) (or ?v_120 (< ?v_13 6)) ?v_97 ?v_98 ?v_99 ?v_100 ?v_101 ?v_102 ?v_103 ?v_104 ?v_197 ?v_198 ?v_199 ?v_200 ?v_201 ?v_202 ?v_203 ?v_204 (or ?v_120 ?v_140) (or ?v_122 (< (- t_C_rb_ga1_gc1_3 t_B_ra_rb_gb9_2) 4)) (or ?v_123 (< (- t_C_rb_ga1_gc1_3 t_B_ra_rb_gb8_2) 4)) (or ?v_124 (< (- t_C_rb_ga1_gc1_3 t_B_ra_rb_gb7_2) 4)) (or ?v_125 (< (- t_C_rb_ga1_gc1_3 t_B_ra_rb_gb6_2) 4)) (or ?v_126 (< (- t_C_rb_ga1_gc1_3 t_B_ra_rb_gb5_2) 4)) (or ?v_127 (< (- t_C_rb_ga1_gc1_3 t_B_ra_rb_gb4_2) 4)) (or ?v_128 (< (- t_C_rb_ga1_gc1_3 t_B_ra_rb_gb3_2) 4)) (or ?v_129 (< (- t_C_rb_ga1_gc1_3 t_B_ra_rb_gb2_2) 4)) (or (> ?v_130 4) ?v_131) (or (< ?v_121 5) ?v_132) (or (< (- t_B_ra_rb_gb9_2 t_A_ra_ga2_gb1_1) 5) ?v_132) (or (< ?v_133 5) (> ?v_133 5)) (or (< (- t_B_ra_rb_gb8_2 t_A_ra_ga2_gb1_1) 5) ?v_132) (or (< ?v_134 5) (> ?v_134 5)) (or (< (- t_B_ra_rb_gb7_2 t_A_ra_ga2_gb1_1) 5) ?v_132) (or (< ?v_135 5) (> ?v_135 5)) (or (< (- t_B_ra_rb_gb6_2 t_A_ra_ga2_gb1_1) 5) ?v_132) (or (< ?v_136 5) (> ?v_136 5)) (or (< (- t_B_ra_rb_gb5_2 t_A_ra_ga2_gb1_1) 5) ?v_132) (or (< ?v_137 5) (> ?v_137 5)) (or (< (- t_B_ra_rb_gb4_2 t_A_ra_ga2_gb1_1) 5) ?v_132) (or (< ?v_138 5) (> ?v_138 5)) (or (< (- t_B_ra_rb_gb3_2 t_A_ra_ga2_gb1_1) 5) ?v_132) (or (< ?v_139 5) (> ?v_139 5)) (or (< (- t_B_ra_rb_gb2_2 t_A_ra_ga2_gb1_1) 5) ?v_132) (or ?v_140 ?v_120) (or ?v_141 ?v_142) (or (> ?v_143 5) (< ?v_143 5)) (or (> ?v_144 5) (< ?v_144 5)) (or (> ?v_145 5) (< ?v_145 5)) (or (> ?v_146 5) (< ?v_146 5)) (or (> ?v_147 5) (< ?v_147 5)) (or (> ?v_148 5) (< ?v_148 5)) (or (> ?v_149 5) (< ?v_149 5)) ?v_150 ?v_151 ?v_152 ?v_153 ?v_154 ?v_155 ?v_156 ?v_157 ?v_221 ?v_222 ?v_223 ?v_224 ?v_225 ?v_226 ?v_227 (or ?v_172 ?v_205) (or ?v_174 (< (- t_B_ra_rb_gb2_2 t_A_ra_ga9_gb1_1) 5)) (or ?v_175 (< (- t_B_ra_rb_gb2_2 t_A_ra_ga8_gb1_1) 5)) (or ?v_176 (< (- t_B_ra_rb_gb2_2 t_A_ra_ga7_gb1_1) 5)) (or ?v_177 (< (- t_B_ra_rb_gb2_2 t_A_ra_ga6_gb1_1) 5)) (or ?v_178 (< (- t_B_ra_rb_gb2_2 t_A_ra_ga5_gb1_1) 5)) (or ?v_179 (< (- t_B_ra_rb_gb2_2 t_A_ra_ga4_gb1_1) 5)) (or ?v_180 (< (- t_B_ra_rb_gb2_2 t_A_ra_ga3_gb1_1) 5)) (or (< (- t_C_rb_ga1_gc9_3 t_B_ra_rb_gb2_2) 4) ?v_129) (or (< ?v_181 4) (> ?v_181 4)) (or (< (- t_C_rb_ga1_gc8_3 t_B_ra_rb_gb2_2) 4) ?v_129) (or (< ?v_182 4) (> ?v_182 4)) (or (< (- t_C_rb_ga1_gc7_3 t_B_ra_rb_gb2_2) 4) ?v_129) (or (< ?v_183 4) (> ?v_183 4)) (or (< (- t_C_rb_ga1_gc6_3 t_B_ra_rb_gb2_2) 4) ?v_129) (or (< ?v_184 4) (> ?v_184 4)) (or (< (- t_C_rb_ga1_gc5_3 t_B_ra_rb_gb2_2) 4) ?v_129) (or (< ?v_185 4) (> ?v_185 4)) (or (< (- t_C_rb_ga1_gc4_3 t_B_ra_rb_gb2_2) 4) ?v_129) (or (< ?v_186 4) (> ?v_186 4)) (or (< (- t_C_rb_ga1_gc3_3 t_B_ra_rb_gb2_2) 4) ?v_129) (or (< ?v_187 4) (> ?v_187 4)) (or (< (- t_C_rb_ga1_gc2_3 t_B_ra_rb_gb2_2) 4) ?v_129) (or ?v_188 ?v_189) (or (> ?v_190 4) (< ?v_190 4)) (or (> ?v_191 4) (< ?v_191 4)) (or (> ?v_192 4) (< ?v_192 4)) (or (> ?v_193 4) (< ?v_193 4)) (or (> ?v_194 4) (< ?v_194 4)) (or (> ?v_195 4) (< ?v_195 4)) (or (> ?v_196 4) (< ?v_196 4)) ?v_97 ?v_98 ?v_99 ?v_100 ?v_101 ?v_102 ?v_103 ?v_197 ?v_198 ?v_199 ?v_200 ?v_201 ?v_202 ?v_203 ?v_204 (or ?v_122 (< (- t_C_rb_ga1_gc2_3 t_B_ra_rb_gb9_2) 4)) (or ?v_123 (< (- t_C_rb_ga1_gc2_3 t_B_ra_rb_gb8_2) 4)) (or ?v_124 (< (- t_C_rb_ga1_gc2_3 t_B_ra_rb_gb7_2) 4)) (or ?v_125 (< (- t_C_rb_ga1_gc2_3 t_B_ra_rb_gb6_2) 4)) (or ?v_126 (< (- t_C_rb_ga1_gc2_3 t_B_ra_rb_gb5_2) 4)) (or ?v_127 (< (- t_C_rb_ga1_gc2_3 t_B_ra_rb_gb4_2) 4)) (or ?v_128 (< (- t_C_rb_ga1_gc2_3 t_B_ra_rb_gb3_2) 4)) (or ?v_205 ?v_172) (or (< ?v_119 5) ?v_180) (or (< (- t_B_ra_rb_gb9_2 t_A_ra_ga3_gb1_1) 5) ?v_180) (or (< ?v_206 5) (> ?v_206 5)) (or (< (- t_B_ra_rb_gb8_2 t_A_ra_ga3_gb1_1) 5) ?v_180) (or (< ?v_207 5) (> ?v_207 5)) (or (< (- t_B_ra_rb_gb7_2 t_A_ra_ga3_gb1_1) 5) ?v_180) (or (< ?v_208 5) (> ?v_208 5)) (or (< (- t_B_ra_rb_gb6_2 t_A_ra_ga3_gb1_1) 5) ?v_180) (or (< ?v_209 5) (> ?v_209 5)) (or (< (- t_B_ra_rb_gb5_2 t_A_ra_ga3_gb1_1) 5) ?v_180) (or (< ?v_210 5) (> ?v_210 5)) (or (< (- t_B_ra_rb_gb4_2 t_A_ra_ga3_gb1_1) 5) ?v_180) (or (< ?v_211 5) (> ?v_211 5)) (or (< (- t_B_ra_rb_gb3_2 t_A_ra_ga3_gb1_1) 5) ?v_180) (or ?v_212 ?v_118) (or ?v_213 ?v_214) (or (> ?v_215 5) (< ?v_215 5)) (or (> ?v_216 5) (< ?v_216 5)) (or (> ?v_217 5) (< ?v_217 5)) (or (> ?v_218 5) (< ?v_218 5)) (or (> ?v_219 5) (< ?v_219 5)) (or (> ?v_220 5) (< ?v_220 5)) ?v_150 ?v_151 ?v_152 ?v_153 ?v_154 ?v_155 ?v_157 ?v_221 ?v_222 ?v_223 ?v_224 ?v_225 ?v_226 ?v_227 (or ?v_174 (< (- t_B_ra_rb_gb3_2 t_A_ra_ga9_gb1_1) 5)) (or ?v_175 (< (- t_B_ra_rb_gb3_2 t_A_ra_ga8_gb1_1) 5)) (or ?v_176 (< (- t_B_ra_rb_gb3_2 t_A_ra_ga7_gb1_1) 5)) (or ?v_177 (< (- t_B_ra_rb_gb3_2 t_A_ra_ga6_gb1_1) 5)) (or ?v_178 (< (- t_B_ra_rb_gb3_2 t_A_ra_ga5_gb1_1) 5)) (or ?v_179 (< (- t_B_ra_rb_gb3_2 t_A_ra_ga4_gb1_1) 5)) (or (< (- t_C_rb_ga1_gc9_3 t_B_ra_rb_gb3_2) 4) ?v_128) (or (< ?v_228 4) (> ?v_228 4)) (or (< (- t_C_rb_ga1_gc8_3 t_B_ra_rb_gb3_2) 4) ?v_128) (or (< ?v_229 4) (> ?v_229 4)) (or (< (- t_C_rb_ga1_gc7_3 t_B_ra_rb_gb3_2) 4) ?v_128) (or (< ?v_230 4) (> ?v_230 4)) (or (< (- t_C_rb_ga1_gc6_3 t_B_ra_rb_gb3_2) 4) ?v_128) (or (< ?v_231 4) (> ?v_231 4)) (or (< (- t_C_rb_ga1_gc5_3 t_B_ra_rb_gb3_2) 4) ?v_128) (or (< ?v_232 4) (> ?v_232 4)) (or (< (- t_C_rb_ga1_gc4_3 t_B_ra_rb_gb3_2) 4) ?v_128) (or (< ?v_233 4) (> ?v_233 4)) (or (< (- t_C_rb_ga1_gc3_3 t_B_ra_rb_gb3_2) 4) ?v_128) (or ?v_234 ?v_235) (or (> ?v_236 4) (< ?v_236 4)) (or (> ?v_237 4) (< ?v_237 4)) (or (> ?v_238 4) (< ?v_238 4)) (or (> ?v_239 4) (< ?v_239 4)) (or (> ?v_240 4) (< ?v_240 4)) (or (> ?v_241 4) (< ?v_241 4)) ?v_97 ?v_98 ?v_99 ?v_100 ?v_101 ?v_102 ?v_197 ?v_198 ?v_199 ?v_200 ?v_201 ?v_202 ?v_203 (or ?v_122 (< (- t_C_rb_ga1_gc3_3 t_B_ra_rb_gb9_2) 4)) (or ?v_123 (< (- t_C_rb_ga1_gc3_3 t_B_ra_rb_gb8_2) 4)) (or ?v_124 (< (- t_C_rb_ga1_gc3_3 t_B_ra_rb_gb7_2) 4)) (or ?v_125 (< (- t_C_rb_ga1_gc3_3 t_B_ra_rb_gb6_2) 4)) (or ?v_126 (< (- t_C_rb_ga1_gc3_3 t_B_ra_rb_gb5_2) 4)) (or ?v_127 (< (- t_C_rb_ga1_gc3_3 t_B_ra_rb_gb4_2) 4)) (or ?v_242 ?v_170) (or (< ?v_117 5) ?v_179) (or (< (- t_B_ra_rb_gb9_2 t_A_ra_ga4_gb1_1) 5) ?v_179) (or (< ?v_243 5) (> ?v_243 5)) (or (< (- t_B_ra_rb_gb8_2 t_A_ra_ga4_gb1_1) 5) ?v_179) (or (< ?v_244 5) (> ?v_244 5)) (or (< (- t_B_ra_rb_gb7_2 t_A_ra_ga4_gb1_1) 5) ?v_179) (or (< ?v_245 5) (> ?v_245 5)) (or (< (- t_B_ra_rb_gb6_2 t_A_ra_ga4_gb1_1) 5) ?v_179) (or (< ?v_246 5) (> ?v_246 5)) (or (< (- t_B_ra_rb_gb5_2 t_A_ra_ga4_gb1_1) 5) ?v_179) (or (< ?v_247 5) (> ?v_247 5)) (or (< (- t_B_ra_rb_gb4_2 t_A_ra_ga4_gb1_1) 5) ?v_179) (or ?v_248 ?v_116) (or ?v_249 ?v_250) (or (> ?v_251 5) (< ?v_251 5)) (or (> ?v_252 5) (< ?v_252 5)) (or (> ?v_253 5) (< ?v_253 5)) (or (> ?v_254 5) (< ?v_254 5)) (or (> ?v_255 5) (< ?v_255 5)) ?v_150 ?v_151 ?v_152 ?v_153 ?v_154 ?v_157 ?v_221 ?v_222 ?v_223 ?v_224 ?v_225 ?v_226 (or ?v_174 (< (- t_B_ra_rb_gb4_2 t_A_ra_ga9_gb1_1) 5)) (or ?v_175 (< (- t_B_ra_rb_gb4_2 t_A_ra_ga8_gb1_1) 5)) (or ?v_176 (< (- t_B_ra_rb_gb4_2 t_A_ra_ga7_gb1_1) 5)) (or ?v_177 (< (- t_B_ra_rb_gb4_2 t_A_ra_ga6_gb1_1) 5)) (or ?v_178 (< (- t_B_ra_rb_gb4_2 t_A_ra_ga5_gb1_1) 5)) (or (< (- t_C_rb_ga1_gc9_3 t_B_ra_rb_gb4_2) 4) ?v_127) (or (< ?v_256 4) (> ?v_256 4)) (or (< (- t_C_rb_ga1_gc8_3 t_B_ra_rb_gb4_2) 4) ?v_127) (or (< ?v_257 4) (> ?v_257 4)) (or (< (- t_C_rb_ga1_gc7_3 t_B_ra_rb_gb4_2) 4) ?v_127) (or (< ?v_258 4) (> ?v_258 4)) (or (< (- t_C_rb_ga1_gc6_3 t_B_ra_rb_gb4_2) 4) ?v_127) (or (< ?v_259 4) (> ?v_259 4)) (or (< (- t_C_rb_ga1_gc5_3 t_B_ra_rb_gb4_2) 4) ?v_127) (or (< ?v_260 4) (> ?v_260 4)) (or (< (- t_C_rb_ga1_gc4_3 t_B_ra_rb_gb4_2) 4) ?v_127) (or ?v_261 ?v_262) (or (> ?v_263 4) (< ?v_263 4)) (or (> ?v_264 4) (< ?v_264 4)) (or (> ?v_265 4) (< ?v_265 4)) (or (> ?v_266 4) (< ?v_266 4)) (or (> ?v_267 4) (< ?v_267 4)) ?v_97 ?v_98 ?v_99 ?v_100 ?v_101 ?v_197 ?v_198 ?v_199 ?v_200 ?v_201 ?v_202 (or ?v_122 (< (- t_C_rb_ga1_gc4_3 t_B_ra_rb_gb9_2) 4)) (or ?v_123 (< (- t_C_rb_ga1_gc4_3 t_B_ra_rb_gb8_2) 4)) (or ?v_124 (< (- t_C_rb_ga1_gc4_3 t_B_ra_rb_gb7_2) 4)) (or ?v_125 (< (- t_C_rb_ga1_gc4_3 t_B_ra_rb_gb6_2) 4)) (or ?v_126 (< (- t_C_rb_ga1_gc4_3 t_B_ra_rb_gb5_2) 4)) (or ?v_268 ?v_168) (or (< ?v_115 5) ?v_178) (or (< (- t_B_ra_rb_gb9_2 t_A_ra_ga5_gb1_1) 5) ?v_178) (or (< ?v_269 5) (> ?v_269 5)) (or (< (- t_B_ra_rb_gb8_2 t_A_ra_ga5_gb1_1) 5) ?v_178) (or (< ?v_270 5) (> ?v_270 5)) (or (< (- t_B_ra_rb_gb7_2 t_A_ra_ga5_gb1_1) 5) ?v_178) (or (< ?v_271 5) (> ?v_271 5)) (or (< (- t_B_ra_rb_gb6_2 t_A_ra_ga5_gb1_1) 5) ?v_178) (or (< ?v_272 5) (> ?v_272 5)) (or (< (- t_B_ra_rb_gb5_2 t_A_ra_ga5_gb1_1) 5) ?v_178) (or ?v_273 ?v_114) (or ?v_274 ?v_275) (or (> ?v_276 5) (< ?v_276 5)) (or (> ?v_277 5) (< ?v_277 5)) (or (> ?v_278 5) (< ?v_278 5)) (or (> ?v_279 5) (< ?v_279 5)) ?v_150 ?v_151 ?v_152 ?v_153 ?v_157 ?v_221 ?v_222 ?v_223 ?v_224 ?v_225 (or ?v_174 (< (- t_B_ra_rb_gb5_2 t_A_ra_ga9_gb1_1) 5)) (or ?v_175 (< (- t_B_ra_rb_gb5_2 t_A_ra_ga8_gb1_1) 5)) (or ?v_176 (< (- t_B_ra_rb_gb5_2 t_A_ra_ga7_gb1_1) 5)) (or ?v_177 (< (- t_B_ra_rb_gb5_2 t_A_ra_ga6_gb1_1) 5)) (or (< (- t_C_rb_ga1_gc9_3 t_B_ra_rb_gb5_2) 4) ?v_126) (or (< ?v_280 4) (> ?v_280 4)) (or (< (- t_C_rb_ga1_gc8_3 t_B_ra_rb_gb5_2) 4) ?v_126) (or (< ?v_281 4) (> ?v_281 4)) (or (< (- t_C_rb_ga1_gc7_3 t_B_ra_rb_gb5_2) 4) ?v_126) (or (< ?v_282 4) (> ?v_282 4)) (or (< (- t_C_rb_ga1_gc6_3 t_B_ra_rb_gb5_2) 4) ?v_126) (or (< ?v_283 4) (> ?v_283 4)) (or (< (- t_C_rb_ga1_gc5_3 t_B_ra_rb_gb5_2) 4) ?v_126) (or ?v_284 ?v_285) (or (> ?v_286 4) (< ?v_286 4)) (or (> ?v_287 4) (< ?v_287 4)) (or (> ?v_288 4) (< ?v_288 4)) (or (> ?v_289 4) (< ?v_289 4)) ?v_97 ?v_98 ?v_99 ?v_100 ?v_197 ?v_198 ?v_199 ?v_200 ?v_201 (or ?v_122 (< (- t_C_rb_ga1_gc5_3 t_B_ra_rb_gb9_2) 4)) (or ?v_123 (< (- t_C_rb_ga1_gc5_3 t_B_ra_rb_gb8_2) 4)) (or ?v_124 (< (- t_C_rb_ga1_gc5_3 t_B_ra_rb_gb7_2) 4)) (or ?v_125 (< (- t_C_rb_ga1_gc5_3 t_B_ra_rb_gb6_2) 4)) (or ?v_290 ?v_166) (or (< ?v_113 5) ?v_177) (or (< (- t_B_ra_rb_gb9_2 t_A_ra_ga6_gb1_1) 5) ?v_177) (or (< ?v_291 5) (> ?v_291 5)) (or (< (- t_B_ra_rb_gb8_2 t_A_ra_ga6_gb1_1) 5) ?v_177) (or (< ?v_292 5) (> ?v_292 5)) (or (< (- t_B_ra_rb_gb7_2 t_A_ra_ga6_gb1_1) 5) ?v_177) (or (< ?v_293 5) (> ?v_293 5)) (or (< (- t_B_ra_rb_gb6_2 t_A_ra_ga6_gb1_1) 5) ?v_177) (or ?v_294 ?v_112) (or ?v_295 ?v_296) (or (> ?v_297 5) (< ?v_297 5)) (or (> ?v_298 5) (< ?v_298 5)) (or (> ?v_299 5) (< ?v_299 5)) ?v_150 ?v_151 ?v_152 ?v_157 ?v_221 ?v_222 ?v_223 ?v_224 (or ?v_174 (< (- t_B_ra_rb_gb6_2 t_A_ra_ga9_gb1_1) 5)) (or ?v_175 (< (- t_B_ra_rb_gb6_2 t_A_ra_ga8_gb1_1) 5)) (or ?v_176 (< (- t_B_ra_rb_gb6_2 t_A_ra_ga7_gb1_1) 5)) (or (< (- t_C_rb_ga1_gc9_3 t_B_ra_rb_gb6_2) 4) ?v_125) (or (< ?v_300 4) (> ?v_300 4)) (or (< (- t_C_rb_ga1_gc8_3 t_B_ra_rb_gb6_2) 4) ?v_125) (or (< ?v_301 4) (> ?v_301 4)) (or (< (- t_C_rb_ga1_gc7_3 t_B_ra_rb_gb6_2) 4) ?v_125) (or (< ?v_302 4) (> ?v_302 4)) (or (< (- t_C_rb_ga1_gc6_3 t_B_ra_rb_gb6_2) 4) ?v_125) (or ?v_303 ?v_304) (or (> ?v_305 4) (< ?v_305 4)) (or (> ?v_306 4) (< ?v_306 4)) (or (> ?v_307 4) (< ?v_307 4)) ?v_97 ?v_98 ?v_99 ?v_197 ?v_198 ?v_199 ?v_200 (or ?v_122 (< (- t_C_rb_ga1_gc6_3 t_B_ra_rb_gb9_2) 4)) (or ?v_123 (< (- t_C_rb_ga1_gc6_3 t_B_ra_rb_gb8_2) 4)) (or ?v_124 (< (- t_C_rb_ga1_gc6_3 t_B_ra_rb_gb7_2) 4)) (or ?v_308 ?v_164) (or (< ?v_111 5) ?v_176) (or (< (- t_B_ra_rb_gb9_2 t_A_ra_ga7_gb1_1) 5) ?v_176) (or (< ?v_309 5) (> ?v_309 5)) (or (< (- t_B_ra_rb_gb8_2 t_A_ra_ga7_gb1_1) 5) ?v_176) (or (< ?v_310 5) (> ?v_310 5)) (or (< (- t_B_ra_rb_gb7_2 t_A_ra_ga7_gb1_1) 5) ?v_176) (or ?v_311 ?v_110) (or ?v_312 ?v_313) (or (> ?v_314 5) (< ?v_314 5)) (or (> ?v_315 5) (< ?v_315 5)) ?v_150 ?v_151 ?v_157 ?v_221 ?v_222 ?v_223 (or ?v_174 (< (- t_B_ra_rb_gb7_2 t_A_ra_ga9_gb1_1) 5)) (or ?v_175 (< (- t_B_ra_rb_gb7_2 t_A_ra_ga8_gb1_1) 5)) (or (< (- t_C_rb_ga1_gc9_3 t_B_ra_rb_gb7_2) 4) ?v_124) (or (< ?v_316 4) (> ?v_316 4)) (or (< (- t_C_rb_ga1_gc8_3 t_B_ra_rb_gb7_2) 4) ?v_124) (or (< ?v_317 4) (> ?v_317 4)) (or (< (- t_C_rb_ga1_gc7_3 t_B_ra_rb_gb7_2) 4) ?v_124) (or ?v_318 ?v_319) (or (> ?v_320 4) (< ?v_320 4)) (or (> ?v_321 4) (< ?v_321 4)) ?v_97 ?v_98 ?v_197 ?v_198 ?v_199 (or ?v_122 (< (- t_C_rb_ga1_gc7_3 t_B_ra_rb_gb9_2) 4)) (or ?v_123 (< (- t_C_rb_ga1_gc7_3 t_B_ra_rb_gb8_2) 4)) (or ?v_322 ?v_162) (or (< ?v_109 5) ?v_175) (or (< (- t_B_ra_rb_gb9_2 t_A_ra_ga8_gb1_1) 5) ?v_175) (or (< ?v_323 5) (> ?v_323 5)) (or (< (- t_B_ra_rb_gb8_2 t_A_ra_ga8_gb1_1) 5) ?v_175) (or ?v_324 ?v_108) (or ?v_325 ?v_326) (or (> ?v_327 5) (< ?v_327 5)) ?v_150 ?v_157 ?v_221 ?v_222 (or ?v_174 (< (- t_B_ra_rb_gb8_2 t_A_ra_ga9_gb1_1) 5)) (or (< (- t_C_rb_ga1_gc9_3 t_B_ra_rb_gb8_2) 4) ?v_123) (or (< ?v_328 4) (> ?v_328 4)) (or (< (- t_C_rb_ga1_gc8_3 t_B_ra_rb_gb8_2) 4) ?v_123) (or ?v_329 ?v_330) (or (> ?v_331 4) (< ?v_331 4)) ?v_97 ?v_197 ?v_198 (or ?v_122 (< (- t_C_rb_ga1_gc8_3 t_B_ra_rb_gb9_2) 4)) (or ?v_332 ?v_160) (or (< ?v_107 5) ?v_174) (or (< (- t_B_ra_rb_gb9_2 t_A_ra_ga9_gb1_1) 5) ?v_174) (or ?v_333 ?v_106) (or ?v_334 ?v_335) ?v_157 ?v_221 (or (< (- t_C_rb_ga1_gc9_3 t_B_ra_rb_gb9_2) 4) ?v_122) (or ?v_336 ?v_337) ?v_157 ?v_221)))))))))))))))))))))))))))))))))))))))))))))))))))))))))))))))))))))))))))))))))))))))))))))))))))
(check-sat)
(exit)
